/*********************************************
    * Lab01 - simple
    * Author: Coso
    * Creation Date: Mar, 2019
    *********************************************/
instance_name = "medium_instance_11_simple";

d = 5;
r = 15;

SCj = [314 281 360 341 329];
Dk = [35 87 46 52 84 88 33 67 79 24 63 14 95 36 43];

Cjk = [[53 60 42 30 68 36 62 68 64 57 82 39 66 45 33]
 [85 65 64 51 40 54 53 86 64 80 44 71 83 37 66]
 [41 81 84 72 88 49 53 68 48 71 69 30 66 46 86]
 [55 30 35 82 39 74 31 68 75 54 86 74 43 67 76]
 [78 44 33 33 51 81 31 55 40 73 69 88 37 79 81]];
